p cnf 18 27
-1 -3 0
-2 -3 0
-7 -9 0
-8 -9 0
-13 -15 0
-14 -15 0
-4 -7 -10 0
-4 -8 -11 0
-4 -9 -12 0
7 -4 10 0
8 -5 11 0
9 -6 12 0
-1 -7 -13 0
-2 -8 -14 0
-3 -9 -15 0
-10 -13 -16 0
-10 -14 -17 0
-10 -15 -18 0
13 16 -10 0
14 17 -11 0
15 18 -12 0
-13 -15 0
-14 -15 0
-13 -15 0
-14 -15 0
15 0
13 14 0
